38 51
22 131
65 38
13 147
44 58
3 6
28 25
18 76
97 22
99 35
74 80
9 9
9 179
6 73
49 65
39 39
35 86
15 111
18 25
71 57
21 148
17 51
27 181
63 38
13 74
18 89
25 12
14 141
84 2
50 33
31 11
25 46
48 53
1 148
11 70
13 194
35 169
81 45
34 108
26 21
8 175
28 89
74 6
50 63
1 117
10 40
70 14
70 60
83 24
1 81
